; PUSH cw_5 SLOAD PUSH cw_4 DUP1 SWAP2 PUSH cw_4 => PUSH cw_4 PUSH cw_4 PUSH cw_5 SLOAD DUP2
(set-option :produce-proofs true)
; 
(set-info :status unknown)
(declare-fun storage_t ((_ BitVec 256) (_ BitVec 256) (_ BitVec 256) Int (_ BitVec 256)) (_ BitVec 256))
(declare-fun w_4 () (_ BitVec 256))
(declare-fun w_5 () (_ BitVec 256))
(declare-fun storage_s ((_ BitVec 256) (_ BitVec 256) (_ BitVec 256) Int (_ BitVec 256)) (_ BitVec 256))
(declare-fun exc_halt_t (Int) Bool)
(declare-fun exc_halt_s (Int) Bool)
(declare-fun stack_t ((_ BitVec 256) (_ BitVec 256) (_ BitVec 256) Int (_ BitVec 6)) (_ BitVec 256))
(declare-fun stack_s ((_ BitVec 256) (_ BitVec 256) (_ BitVec 256) Int (_ BitVec 6)) (_ BitVec 256))
(declare-fun sc_t (Int) (_ BitVec 6))
(declare-fun sc_s (Int) (_ BitVec 6))
(declare-fun used_gas_t ((_ BitVec 256) (_ BitVec 256) (_ BitVec 256) Int) Int)
(declare-fun used_gas_s ((_ BitVec 256) (_ BitVec 256) (_ BitVec 256) Int) Int)
(assert
 (exists ((x_SLOAD_0 (_ BitVec 256)) )(let (($x10511 (forall ((w (_ BitVec 256)) )(let ((?x10393 (storage_t x_SLOAD_0 w_5 w_4 5 w)))
 (let ((?x284 (storage_s x_SLOAD_0 w_5 w_4 6 w)))
 (= ?x284 ?x10393))))
 ))
 (let (($x886 (exc_halt_t 5)))
 (let (($x772 (exc_halt_s 6)))
 (let (($x889 (= $x772 $x886)))
 (let (($x5383 (forall ((n (_ BitVec 6)) )(let ((?x10392 (stack_t x_SLOAD_0 w_5 w_4 5 n)))
 (let ((?x9259 (stack_s x_SLOAD_0 w_5 w_4 6 n)))
 (let (($x2902 (= ?x9259 ?x10392)))
 (let ((?x919 (sc_t 5)))
 (let (($x1534 (bvsle ?x919 n)))
 (or $x1534 $x2902)))))))
 ))
 (let ((?x919 (sc_t 5)))
 (let ((?x926 (sc_s 6)))
 (let (($x929 (= ?x926 ?x919)))
 (let ((?x10532 (used_gas_t x_SLOAD_0 w_5 w_4 0)))
 (let ((?x10589 (used_gas_s x_SLOAD_0 w_5 w_4 0)))
 (let (($x5466 (= ?x10589 ?x10532)))
 (let (($x732 (forall ((w (_ BitVec 256)) )(let ((?x7616 (storage_t x_SLOAD_0 w_5 w_4 0 w)))
 (let ((?x7422 (storage_s x_SLOAD_0 w_5 w_4 0 w)))
 (= ?x7422 ?x7616))))
 ))
 (let (($x56 (exc_halt_t 0)))
 (let (($x57 (exc_halt_s 0)))
 (let (($x58 (= $x57 $x56)))
 (let (($x7296 (forall ((n (_ BitVec 6)) )(let ((?x63 (sc_t 0)))
 (let (($x2788 (bvsle ?x63 n)))
 (let ((?x7518 (stack_t x_SLOAD_0 w_5 w_4 0 n)))
 (let ((?x9611 (stack_s x_SLOAD_0 w_5 w_4 0 n)))
 (let (($x708 (= ?x9611 ?x7518)))
 (or $x708 $x2788)))))))
 ))
 (let ((?x63 (sc_t 0)))
 (let ((?x72 (sc_s 0)))
 (let (($x73 (= ?x72 ?x63)))
 (let (($x3723 (exc_halt_t 4)))
 (let (($x1785 (not (= ((_ extract 6 6) (bvadd (_ bv1 7) (concat (_ bv0 1) (sc_t 4)))) (_ bv0 1)))))
 (let (($x650 (forall ((w (_ BitVec 256)) )(let ((?x9687 (storage_t x_SLOAD_0 w_5 w_4 4 w)))
 (let ((?x10393 (storage_t x_SLOAD_0 w_5 w_4 5 w)))
 (= ?x10393 ?x9687))))
 ))
 (let (($x10364 (forall ((n (_ BitVec 6)) )(let ((?x5340 (stack_t x_SLOAD_0 w_5 w_4 4 n)))
 (let ((?x10392 (stack_t x_SLOAD_0 w_5 w_4 5 n)))
 (or (= ?x10392 ?x5340) (bvsle (bvadd (_ bv62 6) (sc_t 4)) n)))))
 ))
 (let (($x8506 (= ?x919 (bvadd (_ bv1 6) (sc_t 4)))))
 (let (($x10410 (= (used_gas_t x_SLOAD_0 w_5 w_4 5) (+ 3 (used_gas_t x_SLOAD_0 w_5 w_4 4)))))
 (let ((?x3757 (sc_t 4)))
 (let ((?x3004 (bvadd (_ bv63 6) ?x3757)))
 (let ((?x7561 (stack_t x_SLOAD_0 w_5 w_4 4 ?x3004)))
 (let ((?x936 (bvadd (_ bv62 6) ?x3757)))
 (let ((?x9972 (stack_t x_SLOAD_0 w_5 w_4 4 ?x936)))
 (let (($x3399 (= $x3723 (or (exc_halt_t 3) (not (bvsle (_ bv0 6) (bvadd (_ bv63 6) (sc_t 3))))))))
 (let (($x5957 (forall ((w (_ BitVec 256)) )(let ((?x6188 (storage_t x_SLOAD_0 w_5 w_4 3 w)))
 (let ((?x9687 (storage_t x_SLOAD_0 w_5 w_4 4 w)))
 (= ?x9687 ?x6188))))
 ))
 (let (($x7665 (forall ((n (_ BitVec 6)) )(let ((?x7455 (stack_t x_SLOAD_0 w_5 w_4 3 n)))
 (let ((?x5340 (stack_t x_SLOAD_0 w_5 w_4 4 n)))
 (let ((?x2012 (sc_t 3)))
 (let ((?x5224 (bvadd (_ bv63 6) ?x2012)))
 (let (($x235 (bvsle ?x5224 n)))
 (or $x235 (= ?x5340 ?x7455))))))))
 ))
 (let ((?x2012 (sc_t 3)))
 (let (($x632 (= ?x3757 ?x2012)))
 (let ((?x9602 (used_gas_t x_SLOAD_0 w_5 w_4 4)))
 (let ((?x744 (storage_t x_SLOAD_0 w_5 w_4 3 (stack_t x_SLOAD_0 w_5 w_4 3 (bvadd (_ bv63 6) ?x2012)))))
 (let (($x1917 (not (= ((_ extract 6 6) (bvadd (_ bv1 7) (concat (_ bv0 1) (sc_t 2)))) (_ bv0 1)))))
 (let (($x903 (exc_halt_t 2)))
 (let (($x10336 (exc_halt_t 3)))
 (let (($x7790 (= $x10336 (or $x903 $x1917))))
 (let (($x905 (forall ((w (_ BitVec 256)) )(let ((?x1620 (storage_t x_SLOAD_0 w_5 w_4 2 w)))
 (let ((?x6188 (storage_t x_SLOAD_0 w_5 w_4 3 w)))
 (= ?x6188 ?x1620))))
 ))
 (let (($x9588 (forall ((n (_ BitVec 6)) )(let ((?x7346 (stack_t x_SLOAD_0 w_5 w_4 2 n)))
 (let ((?x7455 (stack_t x_SLOAD_0 w_5 w_4 3 n)))
 (let ((?x4056 (sc_t 2)))
 (let (($x5469 (bvsle ?x4056 n)))
 (or $x5469 (= ?x7455 ?x7346)))))))
 ))
 (let (($x9325 (= ?x2012 (bvadd (_ bv1 6) (sc_t 2)))))
 (let ((?x2814 (used_gas_t x_SLOAD_0 w_5 w_4 3)))
 (let (($x5482 (not (= ((_ extract 6 6) (bvadd (_ bv1 7) (concat (_ bv0 1) (sc_t 1)))) (_ bv0 1)))))
 (let (($x1920 (exc_halt_t 1)))
 (let (($x8644 (= $x903 (or $x1920 $x5482))))
 (let (($x9491 (forall ((w (_ BitVec 256)) )(let ((?x4086 (storage_t x_SLOAD_0 w_5 w_4 1 w)))
 (let ((?x1620 (storage_t x_SLOAD_0 w_5 w_4 2 w)))
 (= ?x1620 ?x4086))))
 ))
 (let (($x8039 (forall ((n (_ BitVec 6)) )(let ((?x10391 (stack_t x_SLOAD_0 w_5 w_4 1 n)))
 (let ((?x7346 (stack_t x_SLOAD_0 w_5 w_4 2 n)))
 (let ((?x4023 (sc_t 1)))
 (let (($x4928 (bvsle ?x4023 n)))
 (or $x4928 (= ?x7346 ?x10391)))))))
 ))
 (let ((?x4056 (sc_t 2)))
 (let (($x2529 (= ?x4056 (bvadd (_ bv1 6) (sc_t 1)))))
 (let ((?x3808 (used_gas_t x_SLOAD_0 w_5 w_4 2)))
 (let (($x6203 (= $x1920 (or $x56 (not (= ((_ extract 6 6) (bvadd (_ bv1 7) (concat (_ bv0 1) ?x63))) (_ bv0 1)))))))
 (let (($x8962 (forall ((w (_ BitVec 256)) )(let ((?x7616 (storage_t x_SLOAD_0 w_5 w_4 0 w)))
 (let ((?x4086 (storage_t x_SLOAD_0 w_5 w_4 1 w)))
 (= ?x4086 ?x7616))))
 ))
 (let (($x9633 (forall ((n (_ BitVec 6)) )(let ((?x7518 (stack_t x_SLOAD_0 w_5 w_4 0 n)))
 (let ((?x10391 (stack_t x_SLOAD_0 w_5 w_4 1 n)))
 (let ((?x63 (sc_t 0)))
 (let (($x2788 (bvsle ?x63 n)))
 (or $x2788 (= ?x10391 ?x7518)))))))
 ))
 (let ((?x4023 (sc_t 1)))
 (let (($x7517 (= ?x4023 (bvadd (_ bv1 6) ?x63))))
 (let (($x6652 (not (= ((_ extract 6 6) (bvadd (_ bv1 7) (concat (_ bv0 1) (sc_s 5)))) (_ bv0 1)))))
 (let (($x3979 (exc_halt_s 5)))
 (let (($x10442 (forall ((w (_ BitVec 256)) )(let ((?x528 (storage_s x_SLOAD_0 w_5 w_4 5 w)))
 (let ((?x284 (storage_s x_SLOAD_0 w_5 w_4 6 w)))
 (= ?x284 ?x528))))
 ))
 (let (($x9767 (forall ((n (_ BitVec 6)) )(let ((?x747 (stack_s x_SLOAD_0 w_5 w_4 5 n)))
 (let ((?x9259 (stack_s x_SLOAD_0 w_5 w_4 6 n)))
 (or (= ?x9259 ?x747) (bvsle (sc_s 5) n)))))
 ))
 (let (($x7702 (= ?x926 (bvadd (_ bv1 6) (sc_s 5)))))
 (let (($x5970 (= (used_gas_s x_SLOAD_0 w_5 w_4 6) (+ 3 (used_gas_s x_SLOAD_0 w_5 w_4 5)))))
 (let (($x4872 (= $x3979 (or (exc_halt_s 4) (not (bvsle (_ bv0 6) (bvadd (_ bv61 6) (sc_s 4))))))))
 (let (($x9178 (forall ((w (_ BitVec 256)) )(let ((?x9740 (storage_s x_SLOAD_0 w_5 w_4 4 w)))
 (let ((?x528 (storage_s x_SLOAD_0 w_5 w_4 5 w)))
 (= ?x528 ?x9740))))
 ))
 (let (($x3530 (forall ((n (_ BitVec 6)) )(let ((?x7401 (stack_s x_SLOAD_0 w_5 w_4 4 n)))
 (let ((?x747 (stack_s x_SLOAD_0 w_5 w_4 5 n)))
 (let ((?x4305 (sc_s 4)))
 (let ((?x1575 (bvadd (_ bv61 6) ?x4305)))
 (let (($x4462 (bvsle ?x1575 n)))
 (or $x4462 (= ?x747 ?x7401))))))))
 ))
 (let ((?x4305 (sc_s 4)))
 (let ((?x805 (sc_s 5)))
 (let (($x445 (= ?x805 ?x4305)))
 (let ((?x7807 (used_gas_s x_SLOAD_0 w_5 w_4 5)))
 (let (($x7024 (= (stack_s x_SLOAD_0 w_5 w_4 5 (bvadd (_ bv62 6) ?x805)) (stack_s x_SLOAD_0 w_5 w_4 4 (bvadd (_ bv62 6) ?x4305)))))
 (let ((?x8635 (bvadd (_ bv63 6) ?x4305)))
 (let ((?x10506 (stack_s x_SLOAD_0 w_5 w_4 4 ?x8635)))
 (let (($x2777 (= (stack_s x_SLOAD_0 w_5 w_4 5 (bvadd (_ bv63 6) ?x805)) (stack_s x_SLOAD_0 w_5 w_4 4 (bvadd (_ bv61 6) ?x4305)))))
 (let (($x3191 (not (= ((_ extract 6 6) (bvadd (_ bv1 7) (concat (_ bv0 1) (sc_s 3)))) (_ bv0 1)))))
 (let (($x838 (not (bvsle (_ bv0 6) (bvadd (_ bv63 6) (sc_s 3))))))
 (let (($x292 (exc_halt_s 3)))
 (let (($x64 (exc_halt_s 4)))
 (let (($x10209 (= $x64 (or $x292 $x838 $x3191))))
 (let (($x742 (forall ((w (_ BitVec 256)) )(let ((?x338 (storage_s x_SLOAD_0 w_5 w_4 3 w)))
 (let ((?x9740 (storage_s x_SLOAD_0 w_5 w_4 4 w)))
 (= ?x9740 ?x338))))
 ))
 (let (($x5621 (forall ((n (_ BitVec 6)) )(let ((?x5673 (stack_s x_SLOAD_0 w_5 w_4 3 n)))
 (let ((?x7401 (stack_s x_SLOAD_0 w_5 w_4 4 n)))
 (let ((?x275 (sc_s 3)))
 (let ((?x8615 (bvadd (_ bv63 6) ?x275)))
 (let (($x912 (bvsle ?x8615 n)))
 (or $x912 (= ?x7401 ?x5673))))))))
 ))
 (let (($x6906 (= ?x4305 (bvadd (_ bv1 6) (sc_s 3)))))
 (let ((?x5381 (used_gas_s x_SLOAD_0 w_5 w_4 4)))
 (let ((?x275 (sc_s 3)))
 (let ((?x8615 (bvadd (_ bv63 6) ?x275)))
 (let ((?x10508 (stack_s x_SLOAD_0 w_5 w_4 3 ?x8615)))
 (let (($x2638 (not (= ((_ extract 6 6) (bvadd (_ bv1 7) (concat (_ bv0 1) (sc_s 2)))) (_ bv0 1)))))
 (let (($x247 (exc_halt_s 2)))
 (let (($x3093 (= $x292 (or $x247 $x2638))))
 (let (($x5873 (forall ((w (_ BitVec 256)) )(let ((?x5263 (storage_s x_SLOAD_0 w_5 w_4 2 w)))
 (let ((?x338 (storage_s x_SLOAD_0 w_5 w_4 3 w)))
 (= ?x338 ?x5263))))
 ))
 (let (($x1495 (forall ((n (_ BitVec 6)) )(let ((?x9475 (stack_s x_SLOAD_0 w_5 w_4 2 n)))
 (let ((?x5673 (stack_s x_SLOAD_0 w_5 w_4 3 n)))
 (let ((?x218 (sc_s 2)))
 (let (($x3725 (bvsle ?x218 n)))
 (or $x3725 (= ?x5673 ?x9475)))))))
 ))
 (let (($x1897 (= ?x275 (bvadd (_ bv1 6) (sc_s 2)))))
 (let ((?x5271 (used_gas_s x_SLOAD_0 w_5 w_4 3)))
 (let (($x3736 (= $x247 (or (exc_halt_s 1) (not (bvsle (_ bv0 6) (bvadd (_ bv63 6) (sc_s 1))))))))
 (let (($x3143 (forall ((w (_ BitVec 256)) )(let ((?x7885 (storage_s x_SLOAD_0 w_5 w_4 1 w)))
 (let ((?x5263 (storage_s x_SLOAD_0 w_5 w_4 2 w)))
 (= ?x5263 ?x7885))))
 ))
 (let (($x3374 (forall ((n (_ BitVec 6)) )(let ((?x5628 (stack_s x_SLOAD_0 w_5 w_4 1 n)))
 (let ((?x9475 (stack_s x_SLOAD_0 w_5 w_4 2 n)))
 (let ((?x154 (sc_s 1)))
 (let ((?x7444 (bvadd (_ bv63 6) ?x154)))
 (let (($x2123 (bvsle ?x7444 n)))
 (or $x2123 (= ?x9475 ?x5628))))))))
 ))
 (let ((?x154 (sc_s 1)))
 (let ((?x218 (sc_s 2)))
 (let (($x8214 (= ?x218 ?x154)))
 (let ((?x10436 (used_gas_s x_SLOAD_0 w_5 w_4 2)))
 (let ((?x339 (storage_s x_SLOAD_0 w_5 w_4 1 (stack_s x_SLOAD_0 w_5 w_4 1 (bvadd (_ bv63 6) ?x154)))))
 (let (($x189 (exc_halt_s 1)))
 (let (($x8439 (= $x189 (or $x57 (not (= ((_ extract 6 6) (bvadd (_ bv1 7) (concat (_ bv0 1) ?x72))) (_ bv0 1)))))))
 (let (($x1189 (forall ((w (_ BitVec 256)) )(let ((?x7422 (storage_s x_SLOAD_0 w_5 w_4 0 w)))
 (let ((?x7885 (storage_s x_SLOAD_0 w_5 w_4 1 w)))
 (= ?x7885 ?x7422))))
 ))
 (let (($x10454 (forall ((n (_ BitVec 6)) )(let ((?x72 (sc_s 0)))
 (let (($x8461 (bvsle ?x72 n)))
 (let ((?x9611 (stack_s x_SLOAD_0 w_5 w_4 0 n)))
 (let ((?x5628 (stack_s x_SLOAD_0 w_5 w_4 1 n)))
 (or (= ?x5628 ?x9611) $x8461))))))
 ))
 (let (($x8455 (= ?x154 (bvadd (_ bv1 6) ?x72))))
 (let (($x624 (forall ((w (_ BitVec 256)) )(let ((?x10376 (ite (= w (stack_s x_SLOAD_0 w_5 w_4 1 (bvadd (_ bv63 6) (sc_s 1)))) x_SLOAD_0 (_ bv0 256))))
 (let ((?x7422 (storage_s x_SLOAD_0 w_5 w_4 0 w)))
 (= ?x7422 ?x10376))))
 ))
 (let (($x3489 (= ?x10589 0)))
 (let (($x2233 (not $x57)))
 (let (($x136 (= ?x72 (_ bv0 6))))
 (and $x136 $x2233 $x3489 $x624 (= (stack_s x_SLOAD_0 w_5 w_4 1 ?x72) w_5) (= (used_gas_s x_SLOAD_0 w_5 w_4 1) (+ 3 ?x10589)) $x8455 $x10454 $x1189 $x8439 (= (stack_s x_SLOAD_0 w_5 w_4 2 (bvadd (_ bv63 6) ?x218)) ?x339) (= ?x10436 (+ 200 (used_gas_s x_SLOAD_0 w_5 w_4 1))) $x8214 $x3374 $x3143 $x3736 (= (stack_s x_SLOAD_0 w_5 w_4 3 ?x218) w_4) (= ?x5271 (+ 3 ?x10436)) $x1897 $x1495 $x5873 $x3093 (= ?x10506 ?x10508) (= (stack_s x_SLOAD_0 w_5 w_4 4 ?x8615) ?x10508) (= ?x5381 (+ 3 ?x5271)) $x6906 $x5621 $x742 $x10209 $x2777 (= (stack_s x_SLOAD_0 w_5 w_4 5 (bvadd (_ bv61 6) ?x805)) ?x10506) $x7024 (= ?x7807 (+ 3 ?x5381)) $x445 $x3530 $x9178 $x4872 (= (stack_s x_SLOAD_0 w_5 w_4 6 ?x805) w_4) $x5970 $x7702 $x9767 $x10442 (= $x772 (or $x3979 $x6652)) (= (stack_t x_SLOAD_0 w_5 w_4 1 ?x63) w_4) (= (used_gas_t x_SLOAD_0 w_5 w_4 1) (+ 3 ?x10532)) $x7517 $x9633 $x8962 $x6203 (= (stack_t x_SLOAD_0 w_5 w_4 2 ?x4023) w_4) (= ?x3808 (+ 3 (used_gas_t x_SLOAD_0 w_5 w_4 1))) $x2529 $x8039 $x9491 $x8644 (= (stack_t x_SLOAD_0 w_5 w_4 3 ?x4056) w_5) (= ?x2814 (+ 3 ?x3808)) $x9325 $x9588 $x905 $x7790 (= ?x7561 ?x744) (= ?x9602 (+ 200 ?x2814)) $x632 $x7665 $x5957 $x3399 (= (stack_t x_SLOAD_0 w_5 w_4 5 (bvadd (_ bv63 6) ?x919)) ?x9972) (= (stack_t x_SLOAD_0 w_5 w_4 5 ?x936) ?x9972) (= (stack_t x_SLOAD_0 w_5 w_4 5 ?x3004) ?x7561) $x10410 $x8506 $x10364 $x650 (= $x886 (or $x1785 $x3723 (not (bvsle (_ bv0 6) ?x936)))) $x73 $x7296 $x58 $x732 $x5466 (not (and $x929 $x5383 $x889 $x10511)))))))))))))))))))))))))))))))))))))))))))))))))))))))))))))))))))))))))))))))))))))))))))))))))))))))))))))))))))
 )
(check-sat)
(get-proof)
